n = 8;
m = 16;
maxTime = 1440; 
delayTime = 0;
delayTrain = 2;
delayDuration = 0;
distance = [2,  1,  1,  3,  2,  3,  1,  2,  1,  4,  1,  17,  1,  4,  1];
passengerStart = [5,5,5,5,5,5,5,5,5,5,5,5,5,5,5,0];
passengerFlow = [5,5,5,5,5,5,5,5,5,5,5,5,5,5,5,0];
scheduledArrival = [| 0, 4, 9, 12, 15, 18, 21, 25, 29, 32, 35, 39, 44, 50, 56, 67, | 60, 64, 69, 72, 75, 78, 81, 85, 89, 92, 95, 99, 104, 110, 116, 127, | 120, 124, 129, 132, 135, 138, 141, 145, 149, 152, 155, 159, 164, 170, 176, 187, | 180, 184, 189, 192, 195, 198, 201, 205, 209, 212, 215, 219, 224, 230, 236, 247, | 240, 244, 249, 252, 255, 258, 261, 265, 269, 272, 275, 279, 284, 290, 296, 307, | 300, 304, 309, 312, 315, 318, 321, 325, 329, 332, 335, 339, 344, 350, 356, 367, | 360, 364, 369, 372, 375, 378, 381, 385, 389, 392, 395, 399, 404, 410, 416, 427, | 420, 424, 429, 432, 435, 438, 441, 445, 449, 452, 455, 459, 464, 470, 476, 487|];
scheduledDeparture = [| 0, 5, 10, 13, 16, 19, 22, 26, 30, 33, 36, 40, 45, 51, 57, 68, | 61, 65, 70, 73, 76, 79, 82, 86, 90, 93, 96, 100, 105, 111, 117, 128, | 121, 125, 130, 133, 136, 139, 142, 146, 150, 153, 156, 160, 165, 171, 177, 188, | 181, 185, 190, 193, 196, 199, 202, 206, 210, 213, 216, 220, 225, 231, 237, 248, | 241, 245, 250, 253, 256, 259, 262, 266, 270, 273, 276, 280, 285, 291, 297, 308, | 301, 305, 310, 313, 316, 319, 322, 326, 330, 333, 336, 340, 345, 351, 357, 368, | 361, 365, 370, 373, 376, 379, 382, 386, 390, 393, 396, 400, 405, 411, 417, 428, | 421, 425, 430, 433, 436, 439, 442, 446, 450, 453, 456, 460, 465, 471, 477, 488|];
capacity = 20000;
